n = 50;
C = 265;
w = [231,146,125,289,135,27,332,171,489,400,234,79,100,426,103,479,78,252,409,9,282,42,173,182,318,382,192,358,386,339,459,88,299,415,446,31,254,35,415,415,396,288,441,189,290,344,395,161,473,269];
p = [1165,740,635,1455,685,145,1670,865,2455,2010,1180,405,510,2140,525,2405,400,1270,2055,55,1420,220,875,920,1600,1920,970,1800,1940,1705,2305,450,1505,2085,2240,165,1280,185,2085,2085,1990,1450,2215,955,1460,1730,1985,815,2375,1355];
